TCS_Benchmarks/redos_fix/snort1_output_distinct_3024_3023_0_0.txt
([^>]*)([^"]{13})
([^>]*)(([bB][eE][gG][iI][nN]|[eE][nN][dD])=")([^"]{13})